(set-logic QF_S)
(declare-fun var0 () String)
(assert (RegexIn var0 (RegexConcat (RegexUnion (RegexStar (Str2Reg "000")) (RegexStar (Str2Reg "111"))) (RegexConcat (RegexPlus (RegexUnion (Str2Reg "2") (Str2Reg "333"))) (RegexConcat (RegexUnion (RegexStar (Str2Reg "444")) (RegexStar (Str2Reg "555"))) (RegexConcat (RegexPlus (RegexStar (Str2Reg "66"))) (RegexConcat (RegexPlus (RegexPlus (Str2Reg "7"))) (RegexConcat (RegexPlus (RegexStar (Str2Reg "888"))) (RegexConcat (RegexStar (RegexUnion (Str2Reg "9") (Str2Reg "a"))) (RegexConcat (RegexUnion (RegexStar (Str2Reg "b")) (RegexStar (Str2Reg "ccc"))) (RegexConcat (RegexStar (RegexUnion (Str2Reg "dd") (Str2Reg "eee"))) (RegexConcat (RegexPlus (RegexStar (Str2Reg "fff"))) (RegexStar (RegexPlus (Str2Reg "gg")))))))))))))))
(assert (not (RegexIn var0 (RegexConcat (RegexPlus (RegexPlus (Str2Reg "0"))) (RegexConcat (RegexStar (RegexUnion (Str2Reg "111") (Str2Reg "2"))) (RegexConcat (RegexPlus (RegexUnion (Str2Reg "3") (Str2Reg "444"))) (RegexConcat (RegexPlus (RegexUnion (Str2Reg "555") (Str2Reg "666"))) (RegexConcat (RegexPlus (RegexStar (Str2Reg "77"))) (RegexConcat (RegexStar (RegexUnion (Str2Reg "8") (Str2Reg "99"))) (RegexConcat (RegexPlus (RegexStar (Str2Reg "aa"))) (RegexConcat (RegexStar (RegexPlus (Str2Reg "bb"))) (RegexConcat (RegexUnion (RegexUnion (Str2Reg "cc") (Str2Reg "d")) (RegexUnion (Str2Reg "eee") (Str2Reg "fff"))) (RegexConcat (RegexStar (RegexStar (Str2Reg "g"))) (RegexPlus (RegexStar (Str2Reg "h"))))))))))))))))
(check-sat)